(declare-const delta_tmp___0 Int)
(declare-const delta_x Int)
(declare-const delta_y Int)
(assert (exists
         ((|tmp___0'?1?1| Int) (|y'?2?2| Int) (|x'?3?3| Int) (phi_y?4?4 Int)
            (phi_x?5?5 Int) (havoc?6?6 Int) (tmp___0?7?7 Int) (y?8?8 Int)
            (x?9?9 Int))
         (and (<= (- x?9?9) 0) (or (< havoc?6?6 0) (< (- havoc?6?6) 0))
                (or (and (= (mod x?9?9 2) 0) (= (+ (- phi_x?5?5) x?9?9 2) 0)
                           (= (+ (- phi_y?4?4) y?8?8 -2) 0))
                      (and (or (< (mod x?9?9 2) 0) (< (- (mod x?9?9 2)) 0))
                             (= (+ (- phi_x?5?5) x?9?9 -1) 0)
                             (= (+ (- phi_y?4?4) y?8?8 -1) 0)))
                (= (+ |tmp___0'?1?1| (- havoc?6?6)) 0)
                (= (+ |y'?2?2| (- phi_y?4?4)) 0)
                (= (+ |x'?3?3| (- phi_x?5?5)) 0)
                (= (+ delta_x (- (+ |x'?3?3| (- x?9?9)))) 0)
                (= (+ delta_y (- (+ |y'?2?2| (- y?8?8)))) 0)
                (= (+ delta_tmp___0 (- (+ |tmp___0'?1?1| (- tmp___0?7?7)))) 0))))
(check-sat)